SumColouring/JavaBacktracker/RandomInstances/10_0.10_1.col
c File: instances/10_0.10_1.col
c
c Description: Random graph of size 10 vertices and P(0.1) of edges between any two vertices.
p col 10 45
e 1 8
e 2 8
e 3 8
e 8 9