SumColouring/MiniZinc model/Experiments/10_0.10_1.col.dzn
% Data file generated from RandomInstances/10_0.10_1.col DIMACS file
size = 10;

chi = 2;

adjacency = [|0,0,0,0,0,0,0,1,0,0,
|0,0,0,0,0,0,0,1,0,0,
|0,0,0,0,0,0,0,1,0,0,
|0,0,0,0,0,0,0,0,0,0,
|0,0,0,0,0,0,0,0,0,0,
|0,0,0,0,0,0,0,0,0,0,
|0,0,0,0,0,0,0,0,0,0,
|1,1,1,0,0,0,0,0,1,0,
|0,0,0,0,0,0,0,1,0,0,
|0,0,0,0,0,0,0,0,0,0,
|];